(set-info :source |printed by MathSAT|)
(declare-fun k () Int)
(declare-fun call_Age.flby () Int)
(declare-fun call_Age2.ite.next () Int)
(declare-fun env () Bool)
(declare-fun call_Age2.flby () Int)
(declare-fun call_Age3.age_of_p.next () Int)
(declare-fun param_q () Bool)
(declare-fun k.next () Int)
(declare-fun param_q.next () Bool)
(declare-fun call_Sofar.flby.next () Bool)
(declare-fun flby.next () Int)
(declare-fun call_Age3.flby () Int)
(declare-fun call_Age2.age_of_p.next () Int)
(declare-fun call_Age.flby.next () Int)
(declare-fun param_t.next () Bool)
(declare-fun _OK_.next () Bool)
(declare-fun _OK_ () Bool)
(declare-fun call_Age2.age_of_p () Int)
(declare-fun call_Age3.age_of_p () Int)
(declare-fun param_t () Bool)
(declare-fun call_Age.age_of_p () Int)
(declare-fun call_Age.ite.next () Int)
(declare-fun call_Age3.ite.next () Int)
(declare-fun flby () Int)
(declare-fun param_r () Bool)
(declare-fun call_Sofar.Sofar.next () Bool)
(declare-fun param_p () Bool)
(declare-fun call_Age.age_of_p.next () Int)
(declare-fun env.next () Bool)
(declare-fun call_Sofar.flby () Bool)
(declare-fun call_Sofar.Sofar () Bool)
(declare-fun call_Age2.flby.next () Int)
(declare-fun call_Age3.flby.next () Int)
(define-fun .def_275 () Bool (= call_Age3.flby.next call_Age3.age_of_p.next))
(define-fun .def_273 () Bool (= call_Sofar.flby.next call_Sofar.Sofar.next))
(define-fun .def_271 () Bool (= call_Age2.flby.next call_Age2.age_of_p.next))
(define-fun .def_269 () Bool (= call_Age.flby.next call_Age.age_of_p.next))
(define-fun .def_267 () Bool (= env.next call_Sofar.Sofar.next))
(define-fun .def_264 () Bool (= flby.next k.next))
(define-fun .def_260 () Bool (and param_t.next param_q.next))
(define-fun .def_258 () Bool (<= k.next call_Age3.age_of_p.next))
(define-fun .def_259 () Bool (not .def_258))
(define-fun .def_261 () Bool (or .def_259 .def_260))
(define-fun .def_256 () Bool (not env.next))
(define-fun .def_262 () Bool (or .def_256 .def_261))
(define-fun .def_263 () Bool (= _OK_.next .def_262))
(define-fun .def_265 () Bool (and .def_263 .def_264))
(define-fun .def_268 () Bool (and .def_265 .def_267))
(define-fun .def_270 () Bool (and .def_268 .def_269))
(define-fun .def_272 () Bool (and .def_270 .def_271))
(define-fun .def_274 () Bool (and .def_272 .def_273))
(define-fun .def_276 () Bool (and .def_274 .def_275))
(define-fun .def_195 () Bool (= call_Age3.flby call_Age3.age_of_p))
(define-fun .def_193 () Bool (= call_Sofar.flby call_Sofar.Sofar))
(define-fun .def_191 () Bool (= call_Age2.age_of_p call_Age2.flby))
(define-fun .def_189 () Bool (= call_Age.age_of_p call_Age.flby))
(define-fun .def_187 () Bool (= env call_Sofar.Sofar))
(define-fun .def_184 () Bool (= k flby))
(define-fun .def_180 () Bool (and param_t param_q))
(define-fun .def_178 () Bool (<= k call_Age3.age_of_p))
(define-fun .def_179 () Bool (not .def_178))
(define-fun .def_181 () Bool (or .def_179 .def_180))
(define-fun .def_176 () Bool (not env))
(define-fun .def_182 () Bool (or .def_176 .def_181))
(define-fun .def_183 () Bool (= _OK_ .def_182))
(define-fun .def_185 () Bool (and .def_183 .def_184))
(define-fun .def_188 () Bool (and .def_185 .def_187))
(define-fun .def_190 () Bool (and .def_188 .def_189))
(define-fun .def_192 () Bool (and .def_190 .def_191))
(define-fun .def_194 () Bool (and .def_192 .def_193))
(define-fun .def_196 () Bool (and .def_194 .def_195))
(define-fun .def_277 () Bool (and .def_196 .def_276))
(define-fun .def_252 () Bool (= call_Age3.ite.next call_Age3.flby.next))
(define-fun .def_244 () Bool (<= 1 k.next))
(define-fun .def_240 () Bool (<= k.next call_Age.age_of_p.next))
(define-fun .def_241 () Bool (not .def_240))
(define-fun .def_243 () Bool (or .def_241 param_q.next))
(define-fun .def_245 () Bool (and .def_243 .def_244))
(define-fun .def_235 () Bool (<= k.next call_Age2.age_of_p.next))
(define-fun .def_236 () Bool (not .def_235))
(define-fun .def_238 () Bool (or .def_236 param_t.next))
(define-fun .def_246 () Bool (and .def_238 .def_245))
(define-fun .def_247 () Bool (and call_Sofar.Sofar .def_246))
(define-fun .def_249 () Bool (= .def_247 call_Sofar.flby.next))
(define-fun .def_231 () Bool (= call_Age2.ite.next call_Age2.flby.next))
(define-fun .def_228 () Bool (= call_Age.ite.next call_Age.flby.next))
(define-fun .def_223 () Bool (not param_r))
(define-fun .def_222 () Bool (= call_Age2.age_of_p call_Age2.ite.next))
(define-fun .def_224 () Bool (or .def_222 .def_223))
(define-fun .def_220 () Bool (= call_Age2.ite.next 0))
(define-fun .def_221 () Bool (or param_r .def_220))
(define-fun .def_225 () Bool (and .def_221 .def_224))
(define-fun .def_217 () Bool (= k flby.next))
(define-fun .def_213 () Bool (= call_Age3.ite.next 0))
(define-fun .def_209 () Bool (and param_p param_r))
(define-fun .def_214 () Bool (or .def_209 .def_213))
(define-fun .def_210 () Bool (not .def_209))
(define-fun .def_207 () Bool (= call_Age3.age_of_p call_Age3.ite.next))
(define-fun .def_211 () Bool (or .def_207 .def_210))
(define-fun .def_203 () Bool (not param_p))
(define-fun .def_202 () Bool (= call_Age.age_of_p call_Age.ite.next))
(define-fun .def_204 () Bool (or .def_202 .def_203))
(define-fun .def_199 () Bool (= call_Age.ite.next 0))
(define-fun .def_201 () Bool (or .def_199 param_p))
(define-fun .def_205 () Bool (and .def_201 .def_204))
(define-fun .def_212 () Bool (and .def_205 .def_211))
(define-fun .def_215 () Bool (and .def_212 .def_214))
(define-fun .def_218 () Bool (and .def_215 .def_217))
(define-fun .def_226 () Bool (and .def_218 .def_225))
(define-fun .def_229 () Bool (and .def_226 .def_228))
(define-fun .def_232 () Bool (and .def_229 .def_231))
(define-fun .def_250 () Bool (and .def_232 .def_249))
(define-fun .def_253 () Bool (and .def_250 .def_252))
(define-fun .def_278 () Bool (and .def_253 .def_277))
(assert .def_278)
